
#######################################################################
#
#                 Cambridge Crystallographic Data Centre
#                                CCDC
#
#######################################################################
#
# If this CIF has been generated from an entry in the Cambridge
# Structural Database, then it will include bibliographic, chemical,
# crystal, experimental, refinement or atomic coordinate data resulting
# from the CCDC's data processing and validation procedures.
#
#######################################################################

data_CSD_CIF_OCHTET14
_audit_creation_date 2011-08-15
_audit_creation_method CSD-ConQuest-V1
_database_code_CSD OCHTET14
_database_code_depnum_ccdc_archive 'CCDC 792927'
_chemical_formula_sum 'C4 H8 N8 O8'
_chemical_formula_moiety
;
C4 H8 N8 O8
;
_journal_coden_Cambridge 1003
_journal_volume 41
_journal_year 2011
_journal_page_first 966
_journal_name_full 'J.Chem.Cryst. '
loop_
_publ_author_name
"J.R.Deschamps"
"M.Frisch"
"D.Parrish"
_chemical_name_systematic
;
1,3,5,7-Tetranitro-1,3,5,7-tetra-azacyclo-octane
;
_cell_volume    514.202
_exptl_crystal_colour 'colorless'
_exptl_crystal_density_diffrn 1.913
_exptl_special_details
;
beta-phase
for isomer see [HOJCOB]
explosive

;
_exptl_crystal_description 'prism'
_diffrn_ambient_temperature 273
#These two values have been output from a single CSD field.
_refine_ls_R_factor_gt 0.0331
_refine_ls_wR_factor_gt 0.0331
_symmetry_cell_setting monoclinic
_symmetry_space_group_name_H-M 'P 21/n'
_symmetry_Int_Tables_number 14
loop_
_symmetry_equiv_pos_site_id
_symmetry_equiv_pos_as_xyz
1 x,y,z
2 1/2-x,1/2+y,1/2-z
3 -x,-y,-z
4 -1/2+x,-1/2-y,-1/2+z
_cell_length_a 6.5289(5)
_cell_length_b 10.9875(9)
_cell_length_c 7.3453(5)
_cell_angle_alpha 90
_cell_angle_beta 102.616(4)
_cell_angle_gamma 90
_cell_formula_units_Z 2
loop_
_atom_type_symbol
_atom_type_radius_bond
C 0.68
H 0.23
N 0.68
O 0.68
loop_
_atom_site_label
_atom_site_type_symbol
_atom_site_fract_x
_atom_site_fract_y
_atom_site_fract_z
N1 N 0.98156(17) 0.62293(9) 0.46191(15)
O1 O 1.27214(17) 0.71988(10) 0.43766(16)
N2 N 1.14021(18) 0.70281(9) 0.53203(16)
N3 N 0.85718(18) 0.52512(9) 0.70575(14)
O2 O 0.7282(2) 0.42839(9) 0.92231(16)
N4 N 0.6983(2) 0.50161(10) 0.79339(16)
O3 O 1.14102(19) 0.74708(10) 0.68320(16)
C1 C 0.8099(2) 0.61536(12) 0.55406(18)
H1 H 0.68330 0.59180 0.46510
H2 H 0.78600 0.69430 0.60470
O4 O 0.53600(17) 0.56071(10) 0.73842(17)
C2 C 0.9776(2) 0.56561(11) 0.28224(18)
H3 H 0.8458(12) 0.5231(11) 0.2391(17)
H4 H 0.993(2) 0.6249(10) 0.1886(13)
N1B N 1.01844(17) 0.37707(9) 0.53809(15)
O1B O 0.72786(17) 0.28012(10) 0.56234(16)
N2B N 0.85979(18) 0.29719(9) 0.46797(16)
N3B N 1.14282(18) 0.47488(9) 0.29425(14)
O2B O 1.2718(2) 0.57161(9) 0.07769(16)
N4B N 1.3017(2) 0.49839(10) 0.20661(16)
O3B O 0.85898(19) 0.25292(10) 0.31680(16)
C1B C 1.1901(2) 0.38464(12) 0.44594(18)
H1B H 1.31670 0.40820 0.53490
H2B H 1.21400 0.30570 0.39530
O4B O 1.46400(17) 0.43929(10) 0.26158(17)
C2B C 1.0224(2) 0.43439(11) 0.71776(18)
H3B H 1.1542(12) 0.4769(11) 0.7609(17)
H4B H 1.007(2) 0.3751(10) 0.8114(13)
#END
